(set-info :smt-lib-version 2.6)
(set-info :category "crafted")
(set-logic QF_FF)
(define-sort FF0 () (_ FiniteField 52435875175126190479447740508185965837690552500527637822603658699938581184513))
(declare-fun is_zero_n35_alt () FF0)
(declare-fun mul_n44_alt () FF0)
(declare-fun is_zero_n12_alt () FF0)
(declare-fun is_zero_n47_alt () FF0)
(declare-fun mul_n50_alt () FF0)
(declare-fun mul_n21_alt () FF0)
(declare-fun mul_n56_alt () FF0)
(declare-fun mul_n59_alt () FF0)
(declare-fun mul_n62_alt () FF0)
(declare-fun mul_n42_alt () FF0)
(declare-fun mul_n19_alt () FF0)
(declare-fun is_zero_n54_alt () FF0)
(declare-fun mul_n63_alt () FF0)
(declare-fun mul_n43_alt () FF0)
(declare-fun mul_n55_alt () FF0)
(declare-fun mul_n20_alt () FF0)
(declare-fun mul_n58_alt () FF0)
(declare-fun mul_n61_alt () FF0)
(declare-fun mul_n29_alt () FF0)
(declare-fun mul_n64_alt () FF0)
(declare-fun return_n3_alt () FF0)
(declare-fun is_zero_inv_n65_alt () FF0)
(declare-fun mul_n22_alt () FF0)
(declare-fun c_n2_alt () FF0)
(declare-fun mul_n24_alt () FF0)
(declare-fun mul_n7_alt () FF0)
(declare-fun f_n4_alt () FF0)
(declare-fun mul_n23_alt () FF0)
(declare-fun mul_n10_alt () FF0)
(declare-fun mul_n27_alt () FF0)
(declare-fun mul_n14_alt () FF0)
(declare-fun mul_n31_alt () FF0)
(declare-fun mul_n30_alt () FF0)
(declare-fun mul_n32_alt () FF0)
(declare-fun is_zero_n17_alt () FF0)
(declare-fun mul_n33_alt () FF0)
(declare-fun mul_n57_alt () FF0)
(declare-fun mul_n60_alt () FF0)
(declare-fun mul_n41_alt () FF0)
(declare-fun mul_n18_alt () FF0)
(declare-fun mul_n8_alt () FF0)
(declare-fun is_zero_n40_alt () FF0)
(declare-fun mul_n48_alt () FF0)
(declare-fun mul_n25_alt () FF0)
(declare-fun mul_n52_alt () FF0)
(declare-fun mul_n36_alt () FF0)
(declare-fun is_zero_inv_n53_alt () FF0)
(declare-fun mul_n51_alt () FF0)
(declare-fun mul_n38_alt () FF0)
(declare-fun mul_n37_alt () FF0)
(declare-fun mul_n49_alt () FF0)
(declare-fun mul_n45_alt () FF0)
(declare-fun is_zero_inv_n46_alt () FF0)
(declare-fun a_n6_alt () FF0)
(declare-fun mul_n9_alt () FF0)
(declare-fun mul_n13_alt () FF0)
(declare-fun b_n5_alt () FF0)
(declare-fun is_zero_inv_n39_alt () FF0)
(declare-fun is_zero_inv_n34_alt () FF0)
(declare-fun mul_n28_alt () FF0)
(declare-fun mul_n26_alt () FF0)
(declare-fun d_n1_alt () FF0)
(declare-fun mul_n15_alt () FF0)
(declare-fun e_n0_alt () FF0)
(declare-fun is_zero_inv_n16_alt () FF0)
(declare-fun is_zero_inv_n11_alt () FF0)
(declare-fun is_zero_n35 () FF0)
(declare-fun mul_n44 () FF0)
(declare-fun is_zero_n12 () FF0)
(declare-fun is_zero_n47 () FF0)
(declare-fun mul_n50 () FF0)
(declare-fun mul_n21 () FF0)
(declare-fun mul_n56 () FF0)
(declare-fun mul_n59 () FF0)
(declare-fun mul_n62 () FF0)
(declare-fun mul_n42 () FF0)
(declare-fun mul_n19 () FF0)
(declare-fun is_zero_n54 () FF0)
(declare-fun mul_n63 () FF0)
(declare-fun mul_n43 () FF0)
(declare-fun mul_n55 () FF0)
(declare-fun mul_n20 () FF0)
(declare-fun mul_n58 () FF0)
(declare-fun mul_n61 () FF0)
(declare-fun mul_n29 () FF0)
(declare-fun mul_n64 () FF0)
(declare-fun return_n3 () FF0)
(declare-fun is_zero_inv_n65 () FF0)
(declare-fun mul_n22 () FF0)
(declare-fun c_n2 () FF0)
(declare-fun mul_n24 () FF0)
(declare-fun mul_n7 () FF0)
(declare-fun f_n4 () FF0)
(declare-fun mul_n23 () FF0)
(declare-fun mul_n10 () FF0)
(declare-fun mul_n27 () FF0)
(declare-fun mul_n14 () FF0)
(declare-fun mul_n31 () FF0)
(declare-fun mul_n30 () FF0)
(declare-fun mul_n32 () FF0)
(declare-fun is_zero_n17 () FF0)
(declare-fun mul_n33 () FF0)
(declare-fun mul_n57 () FF0)
(declare-fun mul_n60 () FF0)
(declare-fun mul_n41 () FF0)
(declare-fun mul_n18 () FF0)
(declare-fun mul_n8 () FF0)
(declare-fun is_zero_n40 () FF0)
(declare-fun mul_n48 () FF0)
(declare-fun mul_n25 () FF0)
(declare-fun mul_n52 () FF0)
(declare-fun mul_n36 () FF0)
(declare-fun is_zero_inv_n53 () FF0)
(declare-fun mul_n51 () FF0)
(declare-fun mul_n38 () FF0)
(declare-fun mul_n37 () FF0)
(declare-fun mul_n49 () FF0)
(declare-fun mul_n45 () FF0)
(declare-fun is_zero_inv_n46 () FF0)
(declare-fun a_n6 () FF0)
(declare-fun mul_n9 () FF0)
(declare-fun mul_n13 () FF0)
(declare-fun b_n5 () FF0)
(declare-fun is_zero_inv_n39 () FF0)
(declare-fun is_zero_inv_n34 () FF0)
(declare-fun mul_n28 () FF0)
(declare-fun mul_n26 () FF0)
(declare-fun d_n1 () FF0)
(declare-fun mul_n15 () FF0)
(declare-fun e_n0 () FF0)
(declare-fun is_zero_inv_n16 () FF0)
(declare-fun is_zero_inv_n11 () FF0)
(assert 
  (let ((let0 (as ff0 FF0)))
  (let ((let1 (as ff9 FF0)))
  (let ((let2 (as ff52435875175126190479447740508185965837690552500527637822603658699938581184512 FF0)))
  (let ((let3 is_zero_n35_alt))
  (let ((let4 (ff.mul let3 let2)))
  (let ((let5 mul_n44_alt))
  (let ((let6 (ff.mul let5 let2)))
  (let ((let7 is_zero_n12_alt))
  (let ((let8 is_zero_n47_alt))
  (let ((let9 (ff.mul let8 let2)))
  (let ((let10 mul_n50_alt))
  (let ((let11 (ff.mul let10 let2)))
  (let ((let12 mul_n21_alt))
  (let ((let13 (ff.mul let12 let2)))
  (let ((let14 mul_n56_alt))
  (let ((let15 (ff.mul let14 let2)))
  (let ((let16 mul_n59_alt))
  (let ((let17 (ff.mul let16 let2)))
  (let ((let18 (as ff2 FF0)))
  (let ((let19 mul_n62_alt))
  (let ((let20 (ff.mul let19 let18)))
  (let ((let21 mul_n42_alt))
  (let ((let22 mul_n19_alt))
  (let ((let23 is_zero_n54_alt))
  (let ((let24 mul_n63_alt))
  (let ((let25 (ff.mul let24 let2)))
  (let ((let26 mul_n43_alt))
  (let ((let27 mul_n55_alt))
  (let ((let28 (ff.mul let27 let2)))
  (let ((let29 mul_n20_alt))
  (let ((let30 (ff.mul let29 let2)))
  (let ((let31 mul_n58_alt))
  (let ((let32 (ff.mul let31 let2)))
  (let ((let33 mul_n61_alt))
  (let ((let34 (ff.mul let33 let2)))
  (let ((let35 (as ff52435875175126190479447740508185965837690552500527637822603658699938581184511 FF0)))
  (let ((let36 mul_n29_alt))
  (let ((let37 (ff.mul let36 let35)))
  (let ((let38 mul_n64_alt))
  (let ((let39 (ff.mul let38 let2)))
  (let ((let40 (ff.add let39 let37 let34 let32 let30 let28 let26 let25 let23 let22 let21 let20 let17 let15 let13 let11 let9 let7 let6 let4 let1)))
  (let ((let41 return_n3_alt))
  (let ((let42 (ff.mul let41 let40)))
  (let ((let43 (= let42 let0)))
  (let ((let44 (as ff1 FF0)))
  (let ((let45 (ff.mul let41 let2)))
  (let ((let46 (ff.add let45 let44)))
  (let ((let47 is_zero_inv_n65_alt))
  (let ((let48 (ff.mul let47 let40)))
  (let ((let49 (= let48 let46)))
  (let ((let50 mul_n22_alt))
  (let ((let51 (ff.mul let50 let2)))
  (let ((let52 c_n2_alt))
  (let ((let53 mul_n24_alt))
  (let ((let54 (ff.mul let53 let2)))
  (let ((let55 mul_n7_alt))
  (let ((let56 f_n4_alt))
  (let ((let57 (ff.mul let56 let2)))
  (let ((let58 mul_n23_alt))
  (let ((let59 (ff.mul let58 let2)))
  (let ((let60 mul_n10_alt))
  (let ((let61 (ff.add let60 let59 let57 let55 let54 let52 let51 let4 let44)))
  (let ((let62 mul_n27_alt))
  (let ((let63 (ff.mul let62 let2)))
  (let ((let64 mul_n14_alt))
  (let ((let65 (ff.mul let64 let2)))
  (let ((let66 mul_n31_alt))
  (let ((let67 (ff.mul let66 let2)))
  (let ((let68 mul_n30_alt))
  (let ((let69 (ff.mul let68 let2)))
  (let ((let70 (ff.mul let36 let2)))
  (let ((let71 mul_n32_alt))
  (let ((let72 (ff.add let71 let70 let69 let67 let52 let65 let63 let18)))
  (let ((let73 (ff.mul let72 let61)))
  (let ((let74 (= let73 let38)))
  (let ((let75 (ff.add let70 let19 let44)))
  (let ((let76 (ff.add let37 let20 let18)))
  (let ((let77 (ff.mul let76 let75)))
  (let ((let78 (= let77 let24)))
  (let ((let79 is_zero_n17_alt))
  (let ((let80 mul_n33_alt))
  (let ((let81 (ff.add let36 let52 let80 let79 let35)))
  (let ((let82 (ff.mul let72 let81)))
  (let ((let83 (= let82 let19)))
  (let ((let84 (ff.add let70 let52 let13 let7 let30 let69 let44)))
  (let ((let85 mul_n57_alt))
  (let ((let86 (ff.mul let85 let2)))
  (let ((let87 mul_n60_alt))
  (let ((let88 (ff.mul let7 let2)))
  (let ((let89 (ff.mul let52 let2)))
  (let ((let90 (ff.mul let55 let2)))
  (let ((let91 (ff.mul let60 let2)))
  (let ((let92 (ff.add let91 let58 let56 let90 let89 let88 let87 let86 let50 let44)))
  (let ((let93 (ff.mul let92 let84)))
  (let ((let94 (= let93 let33)))
  (let ((let95 (ff.add let70 let60 let59 let57 let55 let52 let7 let85 let51)))
  (let ((let96 mul_n41_alt))
  (let ((let97 mul_n18_alt))
  (let ((let98 mul_n8_alt))
  (let ((let99 is_zero_n40_alt))
  (let ((let100 (ff.add let99 let98 let97 let89 let90 let96)))
  (let ((let101 (ff.mul let100 let95)))
  (let ((let102 (= let101 let87)))
  (let ((let103 (ff.mul let79 let2)))
  (let ((let104 (ff.mul let80 let2)))
  (let ((let105 (ff.add let104 let103 let89 let18)))
  (let ((let106 (ff.add let62 let64 let66 let2)))
  (let ((let107 (ff.mul let106 let105)))
  (let ((let108 (= let107 let16)))
  (let ((let109 (ff.add let54 let60 let59 let52 let57 let51 let55 let44)))
  (let ((let110 (ff.add let91 let58 let56 let90 let89 let88 let86 let50 let44)))
  (let ((let111 (ff.mul let110 let109)))
  (let ((let112 (= let111 let31)))
  (let ((let113 (ff.add let91 let58 let89 let56 let50 let90)))
  (let ((let114 (ff.mul let7 let35)))
  (let ((let115 (ff.add let114 let18)))
  (let ((let116 (ff.mul let115 let113)))
  (let ((let117 (= let116 let85)))
  (let ((let118 (ff.add let9 let44)))
  (let ((let119 (ff.mul let27 let35)))
  (let ((let120 (ff.add let119 let18)))
  (let ((let121 (ff.mul let120 let118)))
  (let ((let122 (= let121 let14)))
  (let ((let123 mul_n48_alt))
  (let ((let124 (ff.mul let123 let2)))
  (let ((let125 (ff.add let124 let89 let50 let44)))
  (let ((let126 (ff.mul let21 let2)))
  (let ((let127 (ff.add let126 let44)))
  (let ((let128 (ff.mul let127 let125)))
  (let ((let129 (= let128 let27)))
  (let ((let130 mul_n25_alt))
  (let ((let131 (ff.mul let130 let2)))
  (let ((let132 (as ff3 FF0)))
  (let ((let133 (ff.mul let50 let132)))
  (let ((let134 (ff.mul let52 let35)))
  (let ((let135 mul_n52_alt))
  (let ((let136 (ff.mul let56 let18)))
  (let ((let137 mul_n36_alt))
  (let ((let138 (ff.mul let58 let18)))
  (let ((let139 (ff.mul let55 let35)))
  (let ((let140 (ff.mul let60 let35)))
  (let ((let141 (ff.add let140 let139 let138 let137 let136 let135 let53 let134 let9 let99 let96 let133 let131 let18)))
  (let ((let142 (ff.mul let23 let141)))
  (let ((let143 (= let142 let0)))
  (let ((let144 (ff.mul let23 let2)))
  (let ((let145 (ff.add let144 let44)))
  (let ((let146 is_zero_inv_n53_alt))
  (let ((let147 (ff.mul let146 let141)))
  (let ((let148 (= let147 let145)))
  (let ((let149 (as ff52435875175126190479447740508185965837690552500527637822603658699938581184510 FF0)))
  (let ((let150 mul_n51_alt))
  (let ((let151 mul_n38_alt))
  (let ((let152 mul_n37_alt))
  (let ((let153 (ff.mul let71 let2)))
  (let ((let154 (ff.add let153 let36 let64 let68 let62 let152 let89 let66 let8 let151 let150 let149)))
  (let ((let155 (ff.add let153 let36 let64 let68 let62 let152 let89 let66 let151 let150 let35)))
  (let ((let156 (ff.mul let155 let154)))
  (let ((let157 (= let156 let135)))
  (let ((let158 (ff.mul let151 let2)))
  (let ((let159 (ff.mul let152 let2)))
  (let ((let160 (ff.mul let52 let18)))
  (let ((let161 (ff.mul let97 let2)))
  (let ((let162 (ff.mul let98 let2)))
  (let ((let163 (ff.add let71 let70 let55 let65 let69 let162 let63 let161 let160 let159 let67 let158 let18)))
  (let ((let164 (ff.add let11 let44)))
  (let ((let165 (ff.mul let164 let163)))
  (let ((let166 (= let165 let150)))
  (let ((let167 (ff.add let88 let12 let29)))
  (let ((let168 mul_n49_alt))
  (let ((let169 (ff.mul let168 let167)))
  (let ((let170 (= let169 let10)))
  (let ((let171 (ff.add let70 let69 let52 let44)))
  (let ((let172 (ff.mul let125 let171)))
  (let ((let173 (= let172 let168)))
  (let ((let174 (ff.add let134 let18)))
  (let ((let175 (ff.mul let174 let50)))
  (let ((let176 (= let175 let123)))
  (let ((let177 mul_n45_alt))
  (let ((let178 (ff.add let36 let177 let60 let30 let59 let68 let63 let54 let57 let55 let51 let3 let132)))
  (let ((let179 (ff.mul let8 let178)))
  (let ((let180 (= let179 let0)))
  (let ((let181 is_zero_inv_n46_alt))
  (let ((let182 (ff.mul let181 let178)))
  (let ((let183 (= let182 let118)))
  (let ((let184 (ff.add let36 let89 let68 let4)))
  (let ((let185 (ff.add let57 let52 let55)))
  (let ((let186 (ff.mul let185 let184)))
  (let ((let187 (= let186 let177)))
  (let ((let188 (ff.add let98 let97 let89 let90 let44)))
  (let ((let189 (ff.mul let188 let29)))
  (let ((let190 (= let189 let5)))
  (let ((let191 (ff.mul let22 let2)))
  (let ((let192 (ff.add let191 let44)))
  (let ((let193 (ff.mul let21 let35)))
  (let ((let194 (ff.add let193 let18)))
  (let ((let195 (ff.mul let194 let192)))
  (let ((let196 (= let195 let26)))
  (let ((let197 (ff.mul let100 let79)))
  (let ((let198 (= let197 let21)))
  (let ((let199 (ff.add let162 let161 let52 let55)))
  (let ((let200 (ff.mul let99 let35)))
  (let ((let201 (ff.add let200 let18)))
  (let ((let202 (ff.mul let201 let199)))
  (let ((let203 (= let202 let96)))
  (let ((let204 a_n6_alt))
  (let ((let205 mul_n9_alt))
  (let ((let206 (ff.mul let205 let2)))
  (let ((let207 (ff.mul let137 let18)))
  (let ((let208 mul_n13_alt))
  (let ((let209 (ff.mul let50 let18)))
  (let ((let210 b_n5_alt))
  (let ((let211 (ff.mul let210 let2)))
  (let ((let212 (ff.add let70 let138 let30 let79 let64 let152 let66 let211 let131 let209 let208 let140 let139 let207 let136 let80 let62 let69 let13 let7 let206 let151 let204 let132)))
  (let ((let213 (ff.mul let99 let212)))
  (let ((let214 (= let213 let0)))
  (let ((let215 (ff.mul let99 let2)))
  (let ((let216 (ff.add let215 let44)))
  (let ((let217 is_zero_inv_n39_alt))
  (let ((let218 (ff.mul let217 let212)))
  (let ((let219 (= let218 let216)))
  (let ((let220 (ff.add let159 let44)))
  (let ((let221 (as ff4 FF0)))
  (let ((let222 (ff.mul let62 let35)))
  (let ((let223 (ff.mul let64 let35)))
  (let ((let224 (ff.mul let66 let35)))
  (let ((let225 (ff.mul let68 let35)))
  (let ((let226 (ff.mul let71 let18)))
  (let ((let227 (ff.add let226 let37 let225 let224 let160 let223 let222 let221)))
  (let ((let228 (ff.mul let227 let220)))
  (let ((let229 (= let228 let151)))
  (let ((let230 (ff.add let36 let68 let89)))
  (let ((let231 (ff.mul let230 let130)))
  (let ((let232 (= let231 let152)))
  (let ((let233 (ff.add let7 let205 let51 let30 let18)))
  (let ((let234 (ff.mul let3 let233)))
  (let ((let235 (= let234 let0)))
  (let ((let236 (ff.add let4 let44)))
  (let ((let237 is_zero_inv_n34_alt))
  (let ((let238 (ff.mul let237 let233)))
  (let ((let239 (= let238 let236)))
  (let ((let240 (ff.add let89 let44)))
  (let ((let241 (ff.mul let79 let35)))
  (let ((let242 (ff.add let241 let18)))
  (let ((let243 (ff.mul let242 let240)))
  (let ((let244 (= let243 let80)))
  (let ((let245 (ff.mul let66 let18)))
  (let ((let246 (ff.mul let64 let18)))
  (let ((let247 (ff.mul let62 let18)))
  (let ((let248 (ff.add let247 let246 let245 let35)))
  (let ((let249 (ff.mul let248 let230)))
  (let ((let250 (= let249 let71)))
  (let ((let251 (ff.add let65 let44)))
  (let ((let252 (ff.add let222 let18)))
  (let ((let253 (ff.mul let252 let251)))
  (let ((let254 (= let253 let66)))
  (let ((let255 (ff.add let37 let18)))
  (let ((let256 (ff.mul let255 let52)))
  (let ((let257 (= let256 let68)))
  (let ((let258 (ff.mul let208 let2)))
  (let ((let259 (ff.add let7 let258 let210)))
  (let ((let260 mul_n28_alt))
  (let ((let261 (ff.mul let260 let259)))
  (let ((let262 (= let261 let36)))
  (let ((let263 (ff.mul let62 let50)))
  (let ((let264 (= let263 let260)))
  (let ((let265 mul_n26_alt))
  (let ((let266 (ff.mul let265 let7)))
  (let ((let267 (= let266 let62)))
  (let ((let268 (ff.add let162 let52 let55)))
  (let ((let269 (ff.add let30 let44)))
  (let ((let270 (ff.mul let269 let268)))
  (let ((let271 (= let270 let265)))
  (let ((let272 (ff.add let7 let13 let30 let44)))
  (let ((let273 (ff.add let53 let91 let58 let89 let56 let50 let90)))
  (let ((let274 (ff.mul let273 let272)))
  (let ((let275 (= let274 let130)))
  (let ((let276 (ff.add let55 let60 let59 let52 let103 let57 let51 let44)))
  (let ((let277 d_n1_alt))
  (let ((let278 (ff.mul let277 let276)))
  (let ((let279 (= let278 let53)))
  (let ((let280 (ff.add let60 let52 let57 let55)))
  (let ((let281 (ff.mul let50 let35)))
  (let ((let282 (ff.add let281 let18)))
  (let ((let283 (ff.mul let282 let280)))
  (let ((let284 (= let283 let58)))
  (let ((let285 (ff.add let211 let44)))
  (let ((let286 (ff.mul let285 let64)))
  (let ((let287 (= let286 let50)))
  (let ((let288 (ff.mul let7 let18)))
  (let ((let289 (ff.mul let288 let269)))
  (let ((let290 (= let289 let12)))
  (let ((let291 (ff.mul let280 let285)))
  (let ((let292 (= let291 let29)))
  (let ((let293 (ff.mul let56 let199)))
  (let ((let294 (= let293 let22)))
  (let ((let295 (ff.add let162 let52 let55 let206)))
  (let ((let296 (ff.mul let79 let295)))
  (let ((let297 (= let296 let97)))
  (let ((let298 (as ff5 FF0)))
  (let ((let299 mul_n15_alt))
  (let ((let300 (ff.mul let299 let2)))
  (let ((let301 e_n0_alt))
  (let ((let302 (ff.mul let301 let2)))
  (let ((let303 (ff.add let302 let91 let300 let90 let88 let65 let89 let298)))
  (let ((let304 (ff.mul let79 let303)))
  (let ((let305 (= let304 let0)))
  (let ((let306 (ff.add let103 let44)))
  (let ((let307 is_zero_inv_n16_alt))
  (let ((let308 (ff.mul let307 let303)))
  (let ((let309 (= let308 let306)))
  (let ((let310 (ff.mul let115 let251)))
  (let ((let311 (= let310 let299)))
  (let ((let312 (ff.add let302 let44)))
  (let ((let313 (ff.add let88 let208 let211 let44)))
  (let ((let314 (ff.mul let313 let312)))
  (let ((let315 (= let314 let64)))
  (let ((let316 (ff.mul let288 let210)))
  (let ((let317 (= let316 let208)))
  (let ((let318 (ff.mul let204 let35)))
  (let ((let319 (ff.add let302 let89 let318 let221)))
  (let ((let320 (ff.mul let7 let319)))
  (let ((let321 (= let320 let0)))
  (let ((let322 (ff.add let88 let44)))
  (let ((let323 is_zero_inv_n11_alt))
  (let ((let324 (ff.mul let323 let319)))
  (let ((let325 (= let324 let322)))
  (let ((let326 (ff.add let89 let90 let56 let277)))
  (let ((let327 (ff.mul let277 let326)))
  (let ((let328 (= let327 let60)))
  (let ((let329 (ff.mul let52 let268)))
  (let ((let330 (= let329 let205)))
  (let ((let331 (ff.mul let55 let18)))
  (let ((let332 (ff.mul let56 let35)))
  (let ((let333 (ff.add let332 let160 let331)))
  (let ((let334 (ff.mul let333 let56)))
  (let ((let335 (= let334 let98)))
  (let ((let336 (ff.mul let136 let240)))
  (let ((let337 (= let336 let55)))
  (let ((let338 (and let337 let335 let330 let328 let325 let321 let317 let315 let311 let309 let305 let297 let294 let292 let290 let287 let284 let279 let275 let271 let267 let264 let262 let257 let254 let250 let244 let239 let235 let232 let229 let219 let214 let203 let198 let196 let190 let187 let183 let180 let176 let173 let170 let166 let157 let148 let143 let129 let122 let117 let112 let108 let102 let94 let83 let78 let74 let49 let43)))
  (let ((let339 is_zero_n35))
  (let ((let340 (ff.mul let339 let2)))
  (let ((let341 mul_n44))
  (let ((let342 (ff.mul let341 let2)))
  (let ((let343 is_zero_n12))
  (let ((let344 is_zero_n47))
  (let ((let345 (ff.mul let344 let2)))
  (let ((let346 mul_n50))
  (let ((let347 (ff.mul let346 let2)))
  (let ((let348 mul_n21))
  (let ((let349 (ff.mul let348 let2)))
  (let ((let350 mul_n56))
  (let ((let351 (ff.mul let350 let2)))
  (let ((let352 mul_n59))
  (let ((let353 (ff.mul let352 let2)))
  (let ((let354 mul_n62))
  (let ((let355 (ff.mul let354 let18)))
  (let ((let356 mul_n42))
  (let ((let357 mul_n19))
  (let ((let358 is_zero_n54))
  (let ((let359 mul_n63))
  (let ((let360 (ff.mul let359 let2)))
  (let ((let361 mul_n43))
  (let ((let362 mul_n55))
  (let ((let363 (ff.mul let362 let2)))
  (let ((let364 mul_n20))
  (let ((let365 (ff.mul let364 let2)))
  (let ((let366 mul_n58))
  (let ((let367 (ff.mul let366 let2)))
  (let ((let368 mul_n61))
  (let ((let369 (ff.mul let368 let2)))
  (let ((let370 mul_n29))
  (let ((let371 (ff.mul let370 let35)))
  (let ((let372 mul_n64))
  (let ((let373 (ff.mul let372 let2)))
  (let ((let374 (ff.add let373 let371 let369 let367 let365 let363 let361 let360 let358 let357 let356 let355 let353 let351 let349 let347 let345 let343 let342 let340 let1)))
  (let ((let375 return_n3))
  (let ((let376 (ff.mul let375 let374)))
  (let ((let377 (= let376 let0)))
  (let ((let378 (ff.mul let375 let2)))
  (let ((let379 (ff.add let378 let44)))
  (let ((let380 is_zero_inv_n65))
  (let ((let381 (ff.mul let380 let374)))
  (let ((let382 (= let381 let379)))
  (let ((let383 mul_n22))
  (let ((let384 (ff.mul let383 let2)))
  (let ((let385 c_n2))
  (let ((let386 mul_n24))
  (let ((let387 (ff.mul let386 let2)))
  (let ((let388 mul_n7))
  (let ((let389 f_n4))
  (let ((let390 (ff.mul let389 let2)))
  (let ((let391 mul_n23))
  (let ((let392 (ff.mul let391 let2)))
  (let ((let393 mul_n10))
  (let ((let394 (ff.add let393 let392 let390 let388 let387 let385 let384 let340 let44)))
  (let ((let395 mul_n27))
  (let ((let396 (ff.mul let395 let2)))
  (let ((let397 mul_n14))
  (let ((let398 (ff.mul let397 let2)))
  (let ((let399 mul_n31))
  (let ((let400 (ff.mul let399 let2)))
  (let ((let401 mul_n30))
  (let ((let402 (ff.mul let401 let2)))
  (let ((let403 (ff.mul let370 let2)))
  (let ((let404 mul_n32))
  (let ((let405 (ff.add let404 let403 let402 let400 let385 let398 let396 let18)))
  (let ((let406 (ff.mul let405 let394)))
  (let ((let407 (= let406 let372)))
  (let ((let408 (ff.add let403 let354 let44)))
  (let ((let409 (ff.add let371 let355 let18)))
  (let ((let410 (ff.mul let409 let408)))
  (let ((let411 (= let410 let359)))
  (let ((let412 is_zero_n17))
  (let ((let413 mul_n33))
  (let ((let414 (ff.add let370 let385 let413 let412 let35)))
  (let ((let415 (ff.mul let405 let414)))
  (let ((let416 (= let415 let354)))
  (let ((let417 (ff.add let403 let385 let349 let343 let365 let402 let44)))
  (let ((let418 mul_n57))
  (let ((let419 (ff.mul let418 let2)))
  (let ((let420 mul_n60))
  (let ((let421 (ff.mul let343 let2)))
  (let ((let422 (ff.mul let385 let2)))
  (let ((let423 (ff.mul let388 let2)))
  (let ((let424 (ff.mul let393 let2)))
  (let ((let425 (ff.add let424 let391 let389 let423 let422 let421 let420 let419 let383 let44)))
  (let ((let426 (ff.mul let425 let417)))
  (let ((let427 (= let426 let368)))
  (let ((let428 (ff.add let403 let393 let392 let390 let388 let385 let343 let418 let384)))
  (let ((let429 mul_n41))
  (let ((let430 mul_n18))
  (let ((let431 mul_n8))
  (let ((let432 is_zero_n40))
  (let ((let433 (ff.add let432 let431 let430 let422 let423 let429)))
  (let ((let434 (ff.mul let433 let428)))
  (let ((let435 (= let434 let420)))
  (let ((let436 (ff.mul let412 let2)))
  (let ((let437 (ff.mul let413 let2)))
  (let ((let438 (ff.add let437 let436 let422 let18)))
  (let ((let439 (ff.add let395 let397 let399 let2)))
  (let ((let440 (ff.mul let439 let438)))
  (let ((let441 (= let440 let352)))
  (let ((let442 (ff.add let387 let393 let392 let385 let390 let384 let388 let44)))
  (let ((let443 (ff.add let424 let391 let389 let423 let422 let421 let419 let383 let44)))
  (let ((let444 (ff.mul let443 let442)))
  (let ((let445 (= let444 let366)))
  (let ((let446 (ff.add let424 let391 let422 let389 let383 let423)))
  (let ((let447 (ff.mul let343 let35)))
  (let ((let448 (ff.add let447 let18)))
  (let ((let449 (ff.mul let448 let446)))
  (let ((let450 (= let449 let418)))
  (let ((let451 (ff.add let345 let44)))
  (let ((let452 (ff.mul let362 let35)))
  (let ((let453 (ff.add let452 let18)))
  (let ((let454 (ff.mul let453 let451)))
  (let ((let455 (= let454 let350)))
  (let ((let456 mul_n48))
  (let ((let457 (ff.mul let456 let2)))
  (let ((let458 (ff.add let457 let422 let383 let44)))
  (let ((let459 (ff.mul let356 let2)))
  (let ((let460 (ff.add let459 let44)))
  (let ((let461 (ff.mul let460 let458)))
  (let ((let462 (= let461 let362)))
  (let ((let463 mul_n25))
  (let ((let464 (ff.mul let463 let2)))
  (let ((let465 (ff.mul let383 let132)))
  (let ((let466 (ff.mul let385 let35)))
  (let ((let467 mul_n52))
  (let ((let468 (ff.mul let389 let18)))
  (let ((let469 mul_n36))
  (let ((let470 (ff.mul let391 let18)))
  (let ((let471 (ff.mul let388 let35)))
  (let ((let472 (ff.mul let393 let35)))
  (let ((let473 (ff.add let472 let471 let470 let469 let468 let467 let386 let466 let345 let432 let429 let465 let464 let18)))
  (let ((let474 (ff.mul let358 let473)))
  (let ((let475 (= let474 let0)))
  (let ((let476 (ff.mul let358 let2)))
  (let ((let477 (ff.add let476 let44)))
  (let ((let478 is_zero_inv_n53))
  (let ((let479 (ff.mul let478 let473)))
  (let ((let480 (= let479 let477)))
  (let ((let481 mul_n51))
  (let ((let482 mul_n38))
  (let ((let483 mul_n37))
  (let ((let484 (ff.mul let404 let2)))
  (let ((let485 (ff.add let484 let370 let397 let401 let395 let483 let422 let399 let344 let482 let481 let149)))
  (let ((let486 (ff.add let484 let370 let397 let401 let395 let483 let422 let399 let482 let481 let35)))
  (let ((let487 (ff.mul let486 let485)))
  (let ((let488 (= let487 let467)))
  (let ((let489 (ff.mul let482 let2)))
  (let ((let490 (ff.mul let483 let2)))
  (let ((let491 (ff.mul let385 let18)))
  (let ((let492 (ff.mul let430 let2)))
  (let ((let493 (ff.mul let431 let2)))
  (let ((let494 (ff.add let404 let403 let388 let398 let402 let493 let396 let492 let491 let490 let400 let489 let18)))
  (let ((let495 (ff.add let347 let44)))
  (let ((let496 (ff.mul let495 let494)))
  (let ((let497 (= let496 let481)))
  (let ((let498 (ff.add let421 let348 let364)))
  (let ((let499 mul_n49))
  (let ((let500 (ff.mul let499 let498)))
  (let ((let501 (= let500 let346)))
  (let ((let502 (ff.add let403 let402 let385 let44)))
  (let ((let503 (ff.mul let458 let502)))
  (let ((let504 (= let503 let499)))
  (let ((let505 (ff.add let466 let18)))
  (let ((let506 (ff.mul let505 let383)))
  (let ((let507 (= let506 let456)))
  (let ((let508 mul_n45))
  (let ((let509 (ff.add let370 let508 let393 let365 let392 let401 let396 let387 let390 let388 let384 let339 let132)))
  (let ((let510 (ff.mul let344 let509)))
  (let ((let511 (= let510 let0)))
  (let ((let512 is_zero_inv_n46))
  (let ((let513 (ff.mul let512 let509)))
  (let ((let514 (= let513 let451)))
  (let ((let515 (ff.add let370 let422 let401 let340)))
  (let ((let516 (ff.add let390 let385 let388)))
  (let ((let517 (ff.mul let516 let515)))
  (let ((let518 (= let517 let508)))
  (let ((let519 (ff.add let431 let430 let422 let423 let44)))
  (let ((let520 (ff.mul let519 let364)))
  (let ((let521 (= let520 let341)))
  (let ((let522 (ff.mul let357 let2)))
  (let ((let523 (ff.add let522 let44)))
  (let ((let524 (ff.mul let356 let35)))
  (let ((let525 (ff.add let524 let18)))
  (let ((let526 (ff.mul let525 let523)))
  (let ((let527 (= let526 let361)))
  (let ((let528 (ff.mul let433 let412)))
  (let ((let529 (= let528 let356)))
  (let ((let530 (ff.add let493 let492 let385 let388)))
  (let ((let531 (ff.mul let432 let35)))
  (let ((let532 (ff.add let531 let18)))
  (let ((let533 (ff.mul let532 let530)))
  (let ((let534 (= let533 let429)))
  (let ((let535 a_n6))
  (let ((let536 mul_n9))
  (let ((let537 (ff.mul let536 let2)))
  (let ((let538 (ff.mul let469 let18)))
  (let ((let539 mul_n13))
  (let ((let540 (ff.mul let383 let18)))
  (let ((let541 b_n5))
  (let ((let542 (ff.mul let541 let2)))
  (let ((let543 (ff.add let403 let470 let365 let412 let397 let483 let399 let542 let464 let540 let539 let472 let471 let538 let468 let413 let395 let402 let349 let343 let537 let482 let535 let132)))
  (let ((let544 (ff.mul let432 let543)))
  (let ((let545 (= let544 let0)))
  (let ((let546 (ff.mul let432 let2)))
  (let ((let547 (ff.add let546 let44)))
  (let ((let548 is_zero_inv_n39))
  (let ((let549 (ff.mul let548 let543)))
  (let ((let550 (= let549 let547)))
  (let ((let551 (ff.add let490 let44)))
  (let ((let552 (ff.mul let395 let35)))
  (let ((let553 (ff.mul let397 let35)))
  (let ((let554 (ff.mul let399 let35)))
  (let ((let555 (ff.mul let401 let35)))
  (let ((let556 (ff.mul let404 let18)))
  (let ((let557 (ff.add let556 let371 let555 let554 let491 let553 let552 let221)))
  (let ((let558 (ff.mul let557 let551)))
  (let ((let559 (= let558 let482)))
  (let ((let560 (ff.add let370 let401 let422)))
  (let ((let561 (ff.mul let560 let463)))
  (let ((let562 (= let561 let483)))
  (let ((let563 (ff.add let343 let536 let384 let365 let18)))
  (let ((let564 (ff.mul let339 let563)))
  (let ((let565 (= let564 let0)))
  (let ((let566 (ff.add let340 let44)))
  (let ((let567 is_zero_inv_n34))
  (let ((let568 (ff.mul let567 let563)))
  (let ((let569 (= let568 let566)))
  (let ((let570 (ff.add let422 let44)))
  (let ((let571 (ff.mul let412 let35)))
  (let ((let572 (ff.add let571 let18)))
  (let ((let573 (ff.mul let572 let570)))
  (let ((let574 (= let573 let413)))
  (let ((let575 (ff.mul let399 let18)))
  (let ((let576 (ff.mul let397 let18)))
  (let ((let577 (ff.mul let395 let18)))
  (let ((let578 (ff.add let577 let576 let575 let35)))
  (let ((let579 (ff.mul let578 let560)))
  (let ((let580 (= let579 let404)))
  (let ((let581 (ff.add let398 let44)))
  (let ((let582 (ff.add let552 let18)))
  (let ((let583 (ff.mul let582 let581)))
  (let ((let584 (= let583 let399)))
  (let ((let585 (ff.add let371 let18)))
  (let ((let586 (ff.mul let585 let385)))
  (let ((let587 (= let586 let401)))
  (let ((let588 (ff.mul let539 let2)))
  (let ((let589 (ff.add let343 let588 let541)))
  (let ((let590 mul_n28))
  (let ((let591 (ff.mul let590 let589)))
  (let ((let592 (= let591 let370)))
  (let ((let593 (ff.mul let395 let383)))
  (let ((let594 (= let593 let590)))
  (let ((let595 mul_n26))
  (let ((let596 (ff.mul let595 let343)))
  (let ((let597 (= let596 let395)))
  (let ((let598 (ff.add let493 let385 let388)))
  (let ((let599 (ff.add let365 let44)))
  (let ((let600 (ff.mul let599 let598)))
  (let ((let601 (= let600 let595)))
  (let ((let602 (ff.add let343 let349 let365 let44)))
  (let ((let603 (ff.add let386 let424 let391 let422 let389 let383 let423)))
  (let ((let604 (ff.mul let603 let602)))
  (let ((let605 (= let604 let463)))
  (let ((let606 (ff.add let388 let393 let392 let385 let436 let390 let384 let44)))
  (let ((let607 d_n1))
  (let ((let608 (ff.mul let607 let606)))
  (let ((let609 (= let608 let386)))
  (let ((let610 (ff.add let393 let385 let390 let388)))
  (let ((let611 (ff.mul let383 let35)))
  (let ((let612 (ff.add let611 let18)))
  (let ((let613 (ff.mul let612 let610)))
  (let ((let614 (= let613 let391)))
  (let ((let615 (ff.add let542 let44)))
  (let ((let616 (ff.mul let615 let397)))
  (let ((let617 (= let616 let383)))
  (let ((let618 (ff.mul let343 let18)))
  (let ((let619 (ff.mul let618 let599)))
  (let ((let620 (= let619 let348)))
  (let ((let621 (ff.mul let610 let615)))
  (let ((let622 (= let621 let364)))
  (let ((let623 (ff.mul let389 let530)))
  (let ((let624 (= let623 let357)))
  (let ((let625 (ff.add let493 let385 let388 let537)))
  (let ((let626 (ff.mul let412 let625)))
  (let ((let627 (= let626 let430)))
  (let ((let628 mul_n15))
  (let ((let629 (ff.mul let628 let2)))
  (let ((let630 e_n0))
  (let ((let631 (ff.mul let630 let2)))
  (let ((let632 (ff.add let631 let424 let629 let423 let421 let398 let422 let298)))
  (let ((let633 (ff.mul let412 let632)))
  (let ((let634 (= let633 let0)))
  (let ((let635 (ff.add let436 let44)))
  (let ((let636 is_zero_inv_n16))
  (let ((let637 (ff.mul let636 let632)))
  (let ((let638 (= let637 let635)))
  (let ((let639 (ff.mul let448 let581)))
  (let ((let640 (= let639 let628)))
  (let ((let641 (ff.add let631 let44)))
  (let ((let642 (ff.add let421 let539 let542 let44)))
  (let ((let643 (ff.mul let642 let641)))
  (let ((let644 (= let643 let397)))
  (let ((let645 (ff.mul let618 let541)))
  (let ((let646 (= let645 let539)))
  (let ((let647 (ff.mul let535 let35)))
  (let ((let648 (ff.add let631 let422 let647 let221)))
  (let ((let649 (ff.mul let343 let648)))
  (let ((let650 (= let649 let0)))
  (let ((let651 (ff.add let421 let44)))
  (let ((let652 is_zero_inv_n11))
  (let ((let653 (ff.mul let652 let648)))
  (let ((let654 (= let653 let651)))
  (let ((let655 (ff.add let422 let423 let389 let607)))
  (let ((let656 (ff.mul let607 let655)))
  (let ((let657 (= let656 let393)))
  (let ((let658 (ff.mul let385 let598)))
  (let ((let659 (= let658 let536)))
  (let ((let660 (ff.mul let388 let18)))
  (let ((let661 (ff.mul let389 let35)))
  (let ((let662 (ff.add let661 let491 let660)))
  (let ((let663 (ff.mul let662 let389)))
  (let ((let664 (= let663 let431)))
  (let ((let665 (ff.mul let468 let570)))
  (let ((let666 (= let665 let388)))
  (let ((let667 (and let666 let664 let659 let657 let654 let650 let646 let644 let640 let638 let634 let627 let624 let622 let620 let617 let614 let609 let605 let601 let597 let594 let592 let587 let584 let580 let574 let569 let565 let562 let559 let550 let545 let534 let529 let527 let521 let518 let514 let511 let507 let504 let501 let497 let488 let480 let475 let462 let455 let450 let445 let441 let435 let427 let416 let411 let407 let382 let377)))
  (let ((let668 (= let375 let41)))
  (let ((let669 (not let668)))
  (let ((let670 (= let541 let210)))
  (let ((let671 (= let630 let301)))
  (let ((let672 (= let385 let52)))
  (let ((let673 (= let607 let277)))
  (let ((let674 (= let535 let204)))
  (let ((let675 (= let389 let56)))
  (let ((let676 (and let675 let674 let673 let672 let671 let670)))
  (let ((let677 (and let676 let669 let667 let338)))
  let677
))))))))))))))))))))))))))))))))))))))))))))))))))))))))))))))))))))))))))))))))))))))))))))))))))))))))))))))))))))))))))))))))))))))))))))))))))))))))))))))))))))))))))))))))))))))))))))))))))))))))))))))))))))))))))))))))))))))))))))))))))))))))))))))))))))))))))))))))))))))))))))))))))))))))))))))))))))))))))))))))))))))))))))))))))))))))))))))))))))))))))))))))))))))))))))))))))))))))))))))))))))))))))))))))))))))))))))))))))))))))))))))))))))))))))))))))))))))))))))))))))))))))))))))))))))))))))))))))))))))))))))))))))))))))))))))))))))))))))))))))))))))))))))))))))))))))))))))))))))))))))))))))))))))))))))))))))))))))))))))))))))))))))))))))))))))))))))))))))))))
)
(check-sat)
